p cnf 433 96
-20 409 -411 0 
-21 410 -411 0 
-10 38 49 174 379 391 405 411 0 
-21 -22 7 84 412 -411 0 
-23 206 370 403 406 413 -411 0 
-24 25 373 398 414 -411 0 
-25 24 373 398 -26 415 -411 0 
-27 407 416 -411 0 
-28 15 85 92 93 103 104 118 216 222 257 259 260 261 262 263 344 345 353 356 357 399 -29 -30 327 372 404 -31 4 35 45 46 51 95 100 101 115 117 126 138 146 153 155 157 231 232 258 349 369 376 381 393 408 -32 225 346 417 -411 0 
-33 409 -411 0 
-34 375 402 -35 4 31 45 46 51 95 100 101 115 117 126 138 146 153 155 157 231 232 258 349 369 376 381 393 408 418 -411 0 
-36 400 -37 331 419 -411 0 
-38 10 49 174 379 391 405 413 -411 0 
-39 420 -411 0 
-40 42 60 97 143 151 175 224 227 268 332 336 363 386 417 -411 0 
-41 326 410 -411 0 
-42 40 60 97 143 151 175 224 227 268 332 336 363 386 417 -411 0 
-38 10 49 174 379 391 405 421 -411 0 
-79 61 63 112 147 176 248 337 409 -411 0 
-80 422 -411 0 
-81 6 53 116 127 131 140 144 170 267 383 387 423 -411 0 
-80 424 -411 0 
-82 425 -411 0 
-82 412 -411 0 
-20 426 -411 0 
-2 427 -411 0 
-118 15 28 85 92 93 103 104 216 222 257 259 260 261 262 263 344 345 353 356 357 399 426 -411 0 
-206 23 370 403 406 418 -411 0 
-7 22 84 -207 -208 390 423 -411 0 
-224 40 42 60 97 143 151 175 227 268 332 336 363 386 410 -411 0 
-20 -225 32 346 -226 426 -411 0 
-226 409 -411 0 
-119 354 421 -411 0 
-227 40 42 60 97 143 151 175 224 268 332 336 363 386 417 -411 0 
-38 10 49 174 379 391 405 428 -411 0 
-228 420 -411 0 
-2 429 -411 0 
-2 430 -411 0 
-2 431 -411 0 
-232 4 31 35 45 46 51 95 100 101 115 117 126 138 146 153 155 157 231 258 349 369 376 381 393 408 426 -411 0 
-52 55 426 -411 0 
-233 411 0 
-234 411 0 
-20 410 -411 0 
-235 426 -411 0 
-236 409 -411 0 
-144 6 53 81 116 127 131 140 170 267 383 387 425 -411 0 
-144 6 53 81 116 127 131 140 170 267 383 387 432 -411 0 
-319 426 -411 0 
-320 322 347 401 417 -411 0 
-176 61 63 79 112 147 248 337 433 -411 0 
-9 59 70 409 -411 0 
-9 59 70 426 -411 0 
-9 59 70 410 -411 0 
-321 411 0 
-5 1 3 11 12 13 14 16 17 18 19 43 47 48 54 56 57 58 62 64 65 66 67 68 71 72 73 74 75 76 77 78 83 86 87 88 89 90 91 94 96 98 99 105 106 107 108 109 110 111 113 114 120 121 122 123 124 125 128 129 130 132 133 134 135 136 137 139 141 142 145 148 149 152 154 156 158 159 161 162 163 164 165 166 167 168 169 171 172 173 177 178 179 180 181 182 183 184 185 186 187 188 189 190 191 192 193 194 195 196 197 198 199 200 201 202 203 204 205 209 210 211 212 213 214 215 217 218 219 220 221 223 229 230 238 239 240 241 242 243 244 245 246 247 249 250 251 252 253 254 255 256 264 265 266 269 270 271 272 273 274 275 276 277 278 279 280 281 282 283 284 285 286 287 288 289 290 291 292 293 294 295 296 297 298 299 300 301 302 303 305 306 307 308 309 310 311 312 313 314 315 316 317 318 324 325 333 334 335 338 339 340 341 342 343 348 350 351 352 355 358 359 360 361 362 364 365 367 368 377 378 380 382 385 388 389 392 394 425 -411 0 
-5 1 3 11 12 13 14 16 17 18 19 43 47 48 54 56 57 58 62 64 65 66 67 68 71 72 73 74 75 76 77 78 83 86 87 88 89 90 91 94 96 98 99 105 106 107 108 109 110 111 113 114 120 121 122 123 124 125 128 129 130 132 133 134 135 136 137 139 141 142 145 148 149 152 154 156 158 159 161 162 163 164 165 166 167 168 169 171 172 173 177 178 179 180 181 182 183 184 185 186 187 188 189 190 191 192 193 194 195 196 197 198 199 200 201 202 203 204 205 209 210 211 212 213 214 215 217 218 219 220 221 223 229 230 238 239 240 241 242 243 244 245 246 247 249 250 251 252 253 254 255 256 264 265 266 269 270 271 272 273 274 275 276 277 278 279 280 281 282 283 284 285 286 287 288 289 290 291 292 293 294 295 296 297 298 299 300 301 302 303 305 306 307 308 309 310 311 312 313 314 315 316 317 318 324 325 333 334 335 338 339 340 341 342 343 348 350 351 352 355 358 359 360 361 362 364 365 367 368 377 378 380 382 385 388 389 392 394 432 -411 0 
-226 411 0 
-321 426 -411 0 
-52 55 409 -411 0 
-322 320 347 401 410 -411 0 
-52 55 -323 426 -411 0 
-326 41 409 -411 0 
-326 41 423 -411 0 
-7 22 84 -327 30 372 404 -328 425 -411 0 
-329 409 -411 0 
-330 410 -411 0 
-331 37 432 -411 0 
-116 6 53 81 127 131 140 144 170 267 383 387 409 -411 0 
-347 320 322 401 425 -411 0 
-55 52 432 -411 0 
-67 1 3 5 11 12 13 14 16 17 18 19 43 47 48 54 56 57 58 62 64 65 66 68 71 72 73 74 75 76 77 78 83 86 87 88 89 90 91 94 96 98 99 105 106 107 108 109 110 111 113 114 120 121 122 123 124 125 128 129 130 132 133 134 135 136 137 139 141 142 145 148 149 152 154 156 158 159 161 162 163 164 165 166 167 168 169 171 172 173 177 178 179 180 181 182 183 184 185 186 187 188 189 190 191 192 193 194 195 196 197 198 199 200 201 202 203 204 205 209 210 211 212 213 214 215 217 218 219 220 221 223 229 230 238 239 240 241 242 243 244 245 246 247 249 250 251 252 253 254 255 256 264 265 266 269 270 271 272 273 274 275 276 277 278 279 280 281 282 283 284 285 286 287 288 289 290 291 292 293 294 295 296 297 298 299 300 301 302 303 305 306 307 308 309 310 311 312 313 314 315 316 317 318 324 325 333 334 335 338 339 340 341 342 343 348 350 351 352 355 358 359 360 361 362 364 365 367 368 377 378 380 382 385 388 389 392 394 432 -411 0 
-13 1 3 5 11 12 14 16 17 18 19 43 47 48 54 56 57 58 62 64 65 66 67 68 71 72 73 74 75 76 77 78 83 86 87 88 89 90 91 94 96 98 99 105 106 107 108 109 110 111 113 114 120 121 122 123 124 125 128 129 130 132 133 134 135 136 137 139 141 142 145 148 149 152 154 156 158 159 161 162 163 164 165 166 167 168 169 171 172 173 177 178 179 180 181 182 183 184 185 186 187 188 189 190 191 192 193 194 195 196 197 198 199 200 201 202 203 204 205 209 210 211 212 213 214 215 217 218 219 220 221 223 229 230 238 239 240 241 242 243 244 245 246 247 249 250 251 252 253 254 255 256 264 265 266 269 270 271 272 273 274 275 276 277 278 279 280 281 282 283 284 285 286 287 288 289 290 291 292 293 294 295 296 297 298 299 300 301 302 303 305 306 307 308 309 310 311 312 313 314 315 316 317 318 324 325 333 334 335 338 339 340 341 342 343 348 350 351 352 355 358 359 360 361 362 364 365 367 368 377 378 380 382 385 388 389 392 394 426 -411 0 
-370 23 206 403 406 418 -411 0 
-371 -372 30 327 404 418 -411 0 
-373 24 25 398 425 -411 0 
-374 432 -411 0 
-375 34 402 426 -411 0 
-21 409 -411 0 
-328 -84 7 22 432 -411 0 
-323 -232 4 31 35 45 46 51 95 100 101 115 117 126 138 146 153 155 157 231 258 349 369 376 381 393 408 426 -411 0 
-323 -232 4 31 35 45 46 51 95 100 101 115 117 126 138 146 153 155 157 231 258 349 369 376 381 393 408 425 -411 0 
-323 432 -411 0 
-390 208 425 -411 0 
-61 63 79 112 147 176 248 337 432 -411 0 
-397 423 -411 0 
-398 24 25 373 432 -411 0 
-399 15 28 85 92 93 103 104 118 216 222 257 259 260 261 262 263 344 345 353 356 357 426 -411 0 
-400 36 425 -411 0 
-401 320 322 347 432 -411 0 
-402 34 375 425 -411 0 
-403 23 206 370 406 -404 30 327 372 422 -411 0 
-405 10 38 49 174 379 391 425 -411 0 
-207 409 -411 0 
-406 23 206 370 403 -323 -225 32 346 -407 27 -408 4 31 35 45 46 51 95 100 101 115 117 126 138 146 153 155 157 231 232 258 349 369 376 381 393 422 -411 0 
-372 30 327 404 409 -411 0 
